NAME : tsp_60_sol.txt
COMMENT : OR-Tools Guided Local Search
TYPE : TOUR
DIMENSION : 50
COST : 5449
STATUS : ROUTING_SUCCESS
GAP : 0.00% (Reference Solution)
TOUR_SECTION
1
41
49
47
9
10
4
46
40
35
20
36
44
5
29
33
12
38
34
28
7
50
30
37
48
26
23
42
43
11
16
8
14
6
19
25
17
15
27
13
39
3
31
2
22
18
32
45
21
24
-1
